11
Optimized aggregate (1 molecules)
N 1.0380900000 0.1810500000 0.0996900000
C 0.5071356152 -1.0617059169 0.4149014523
H 1.2289402038 -1.8924926901 0.4815949809
C -0.8809114929 -1.2904106594 0.6457758870
H -1.2377801101 -2.2968365645 0.8917718072
C -1.7848541251 -0.1850240416 0.5496124030
H -2.8497713069 -0.3204933443 0.7181104096
C -1.2494348664 1.0848185763 0.2292401121
H -1.8923173249 1.9704716578 0.1424716770
C 0.1395922206 1.2280659243 0.0151169003
H 0.5651137098 2.2069755212 -0.2333144732
